c Random 8-CNF over 20 variables and 180 clauses
c Generated with `cnfgen`
c (C) 2012-2016 Massimo Lauria <lauria.massimo@gmail.com>
c https://massimolauria.github.io/cnfgen
c
c COMMAND LINE: cnfgen --output tmp-8-20-180.dimacs --output-format dimacs randkcnf 8 20 180
c
c sdimacs generated by gen-sdimacs
c
p cnf 20 180
e 11 12 13 14 15 16 17 18 19 20 0
r 0.37 1 2 3 4 5 6 7 8 9 10 0
6 7 8 13 -15 16 17 18 0
-1 2 -5 -7 -8 9 13 -14 0
1 4 -7 -11 -12 13 -14 18 0
3 -4 -10 12 -14 -15 -18 19 0
3 -7 -10 -11 14 -15 19 20 0
-1 -2 5 6 8 10 -13 14 0
2 -7 -9 -11 15 16 -17 18 0
1 -8 -9 11 -13 15 17 -19 0
2 -4 6 12 14 16 -18 19 0
-2 -4 -6 10 -11 12 -15 16 0
-2 3 -4 9 13 15 16 -20 0
3 -4 5 10 -13 15 -17 -20 0
1 2 -6 -7 15 -17 18 -20 0
1 2 -3 -9 -14 15 17 -19 0
2 -5 -9 11 -12 13 14 15 0
-2 -4 6 9 12 15 17 -19 0
-1 -5 -12 -13 -16 -18 19 -20 0
-1 -3 4 9 -13 -15 -16 20 0
-4 -5 -6 10 11 -15 16 -17 0
8 9 13 -15 16 17 -18 -19 0
2 5 -8 -9 -13 16 17 -20 0
4 -6 -7 10 -13 15 19 20 0
6 -9 10 11 13 14 16 -18 0
5 -6 -7 -8 10 12 17 18 0
-1 2 5 -7 9 -10 -12 20 0
-3 5 -6 -8 9 -16 17 18 0
7 -9 10 -14 -15 17 -18 -20 0
-3 -4 7 -9 10 13 19 20 0
1 -2 5 -8 9 16 -18 -20 0
-3 -4 -5 -6 -7 -14 -16 -18 0
-3 -5 -8 -10 11 12 18 19 0
1 -6 7 -8 10 12 16 -19 0
1 -2 3 -5 -16 -17 18 20 0
1 2 -4 7 10 -14 -17 -20 0
2 4 5 -7 -9 -12 16 17 0
-4 -5 6 8 -15 -16 -18 -20 0
3 -5 7 13 -14 -16 -18 -20 0
3 8 -9 -10 12 14 18 19 0
1 2 3 9 12 15 17 -18 0
-1 -4 -5 9 -10 -15 -17 -20 0
1 -4 -5 -7 8 -9 -13 18 0
-1 -4 7 -8 10 14 -15 -17 0
-4 6 7 9 -10 -14 -16 -19 0
2 -3 7 -11 -13 14 -19 20 0
2 4 -5 -12 -16 17 19 -20 0
-1 3 -6 9 10 -13 -15 -20 0
4 -5 6 7 -9 -14 15 20 0
4 -5 -10 -11 -12 -15 19 20 0
1 -2 -4 -5 8 -16 19 -20 0
3 4 -8 11 12 -17 19 -20 0
-1 -5 8 10 -12 -16 -17 -20 0
4 6 -7 -8 -10 -11 -13 -15 0
1 -3 5 8 9 15 -17 -18 0
1 -2 3 -7 8 -9 13 -19 0
2 4 8 11 13 -17 18 -20 0
1 3 -4 6 8 11 15 18 0
-3 -12 13 -14 -16 17 -19 20 0
-6 -7 -9 -10 11 14 18 -20 0
1 -2 6 -8 -9 -10 14 -18 0
-6 -7 8 -13 14 -15 -19 -20 0
3 4 9 -11 -14 16 -17 -20 0
6 8 -10 12 -13 -14 -16 -20 0
-1 3 -4 5 6 11 19 20 0
2 4 -11 12 -13 18 19 -20 0
-1 2 7 -9 -11 -16 17 -20 0
3 4 5 8 -12 17 -18 20 0
-1 5 7 -8 11 14 15 16 0
4 7 8 9 11 14 15 -17 0
5 -7 -9 -12 14 -15 16 19 0
1 -5 6 -7 -9 -10 -15 18 0
-3 -4 5 -8 -10 -11 14 15 0
-4 -7 12 14 -15 -17 18 -20 0
-2 -3 5 8 9 12 -15 -17 0
2 -5 -8 -14 15 -16 -18 -20 0
1 8 -9 -10 -14 15 -19 20 0
-1 -2 -3 11 12 13 14 18 0
1 6 -8 -9 11 -15 19 -20 0
1 2 -5 -10 12 -13 14 -18 0
-1 -5 -6 8 -12 17 -18 19 0
-1 -4 -5 7 -9 17 -18 20 0
-3 8 -10 12 16 17 -19 -20 0
2 -4 -5 10 -12 -14 15 -16 0
3 5 -6 9 10 12 -14 -20 0
3 -4 -7 10 14 18 -19 -20 0
8 -9 11 -12 -15 -17 -18 20 0
-4 6 9 -12 -16 17 -19 20 0
-1 7 8 11 15 16 -18 19 0
1 2 -4 6 -9 13 -15 -18 0
-2 3 5 11 -14 -16 -17 19 0
-1 -2 -3 7 8 -9 12 14 0
-4 9 -10 -14 -15 18 19 -20 0
1 2 3 5 15 -16 -18 19 0
1 9 10 -12 14 15 -17 -20 0
3 -5 -8 -12 -15 16 -17 -20 0
1 4 6 7 -8 12 18 20 0
1 -3 5 -9 12 -17 -18 19 0
-3 5 -7 -8 10 15 -18 -19 0
-6 -8 10 11 12 16 -17 20 0
2 3 4 8 11 -15 17 18 0
-1 -5 -6 7 -9 10 11 19 0
-6 7 8 -9 15 -16 -18 -19 0
1 4 -5 8 -14 -15 17 18 0
2 8 -9 11 12 13 -16 -19 0
-4 -5 -7 14 17 18 19 -20 0
4 7 9 13 15 -16 -18 20 0
3 -6 8 -9 -10 13 18 -19 0
2 4 5 6 -7 9 10 -14 0
3 -4 -6 11 14 15 -18 -19 0
-1 3 -4 -9 10 14 -18 -19 0
2 -6 7 -9 11 -12 -13 17 0
3 4 7 -11 15 -16 -17 -18 0
2 -3 -5 -8 10 -13 -15 17 0
1 -2 11 -12 15 16 18 -19 0
8 -9 -11 -13 -14 -15 17 20 0
2 4 8 -10 -13 14 15 18 0
1 3 -5 9 -13 14 -15 19 0
1 3 -6 8 11 -13 -18 20 0
-2 4 8 -10 -14 16 19 20 0
1 2 6 -7 15 -17 -19 -20 0
1 -2 -3 4 6 -7 -10 -13 0
2 3 -9 -13 14 -15 -19 20 0
-1 -3 4 7 -8 -9 -14 16 0
4 -5 -7 8 10 16 -19 -20 0
-2 -4 -5 -6 8 14 15 -19 0
1 -5 6 11 -12 13 -14 18 0
2 -5 8 -9 11 -12 -14 -20 0
1 2 4 -9 -13 -14 -17 -20 0
1 -4 -5 -8 9 11 16 20 0
1 -5 8 -10 -12 15 18 -19 0
3 5 -6 7 -8 16 17 20 0
-2 3 4 -6 -9 -13 -16 -18 0
-4 5 -6 12 -16 -17 -19 20 0
-2 -7 -13 -14 -15 -16 19 -20 0
-1 -2 4 5 12 14 15 -17 0
1 3 -5 10 11 12 18 -19 0
4 -6 -8 9 -11 -13 15 20 0
2 -3 6 -13 -15 -16 17 18 0
-4 -5 6 -7 11 12 13 19 0
-3 5 9 -11 -14 16 19 20 0
-2 -4 5 -7 8 -13 -16 -20 0
-1 4 -6 7 -11 -15 17 -19 0
-4 -6 -7 8 12 -15 17 19 0
1 -2 5 7 -8 12 -16 20 0
1 -2 4 8 14 16 19 -20 0
-4 -8 10 11 12 13 17 19 0
-2 6 -7 9 10 15 -16 17 0
3 -5 -6 -11 16 -17 18 -20 0
-5 -8 10 13 -14 15 -18 19 0
-1 -2 -5 6 12 14 -19 20 0
2 -4 5 -7 -8 10 15 19 0
1 -6 8 -9 11 12 15 17 0
2 -4 5 -6 -8 10 12 13 0
-3 -5 6 15 16 -17 18 20 0
6 -7 -10 -12 13 14 -17 -19 0
-3 4 -5 -10 -13 -16 19 -20 0
-1 2 4 -7 12 -13 16 -19 0
-1 -4 6 -7 -14 15 19 20 0
-3 -4 9 -10 -13 -14 16 17 0
2 7 -8 -9 11 -12 14 -16 0
1 -2 -4 -10 -12 14 17 19 0
1 5 10 -11 12 -13 -15 18 0
-1 -2 -6 10 14 18 -19 -20 0
-1 -6 -7 10 11 13 16 -19 0
1 2 6 -8 -11 -12 17 -18 0
-7 11 -12 -15 16 17 -18 20 0
4 8 9 10 -11 15 17 20 0
-6 7 8 13 14 -17 -18 -19 0
2 -4 9 -11 -13 15 16 19 0
2 -5 -8 -10 12 -14 15 -16 0
-1 -3 -7 9 10 -11 16 -18 0
1 6 -7 -8 9 -10 15 -18 0
-1 -4 -8 9 -11 -12 -18 -19 0
-1 -4 -7 8 13 15 19 -20 0
4 7 -8 11 -13 16 -17 18 0
3 -4 5 -11 13 14 -15 19 0
-2 -3 6 -7 10 -13 16 20 0
-1 8 -9 10 -12 14 19 20 0
1 -10 12 13 -14 -15 -17 19 0
-2 5 -6 -9 11 -14 -15 -17 0
2 -3 -7 -8 11 15 18 -19 0
